results/real/sos1/mar_21_205.out
Version identifier: 22.1.1.0 | 2022-11-28 | 9160aff4d
CPXPARAM_Threads                                 1
CPXPARAM_MIP_Strategy_VariableSelect             3
CPXPARAM_TimeLimit                               599.99999388499998
1 of 1 MIP starts provided solutions.
MIP start 'm1' defined initial solution with objective 67.0000.
Tried aggregator 1 time.
MIP Presolve eliminated 16 rows and 205 columns.
MIP Presolve modified 52 coefficients.
Reduced MIP has 1227 rows, 2460 columns, and 41202 nonzeros.
Reduced MIP has 2460 binaries, 0 generals, 0 SOSs, and 0 indicators.
Presolve time = 0.03 sec. (65.01 ticks)
Probing time = 0.01 sec. (10.36 ticks)
Tried aggregator 1 time.
Detecting symmetries...
MIP Presolve modified 11 coefficients.
Reduced MIP has 1227 rows, 2460 columns, and 41411 nonzeros.
Reduced MIP has 2460 binaries, 0 generals, 0 SOSs, and 0 indicators.
Presolve time = 0.02 sec. (56.21 ticks)
Probing time = 0.01 sec. (10.37 ticks)
Clique table members: 813.
MIP emphasis: balance optimality and feasibility.
MIP search method: dynamic search.
Parallel mode: none, using 1 thread.
Root relaxation solution time = 0.01 sec. (18.41 ticks)

        Nodes                                         Cuts/
   Node  Left     Objective  IInf  Best Integer    Best Bound    ItCnt     Gap

*     0+    0                           67.0000    21115.0000              --- 
      0     0      205.0000    63       67.0000      205.0000      446  205.97%
*     0+    0                          205.0000      205.0000             0.00%
      0     0        cutoff            205.0000      205.0000      446    0.00%
Elapsed time = 0.12 sec. (214.18 ticks, tree = 0.01 MB, solutions = 2)

Root node processing (before b&c):
  Real time             =    0.12 sec. (214.28 ticks)
Sequential b&c:
  Real time             =    0.00 sec. (0.00 ticks)
                          ------------
Total (root+branch&cut) =    0.12 sec. (214.28 ticks)
Primal:	205
Dual:	205
Status:	Optimal
Time:	0.12
Sequence:
	1
	1
	7
	9
	9
	1
	4
	4
	3
	0
	9
	9
	1
	1
	8
	7
	9
	0
	6
	9
	8
	7
	9
	0
	9
	9
	0
	9
	7
	9
	1
	9
	9
	9
	7
	5
	0
	9
	4
	1
	7
	9
	9
	9
	9
	9
	5
	7
	9
	1
	9
	1
	1
	7
	9
	1
	1
	5
	9
	5
	0
	7
	4
	1
	1
	1
	4
	7
	1
	4
	9
	4
	4
	1
	1
	7
	4
	0
	9
	9
	0
	7
	9
	1
	9
	9
	1
	1
	7
	9
	4
	9
	5
	1
	4
	1
	7
	5
	9
	0
	1
	1
	4
	9
	7
	9
	9
	0
	9
	9
	6
	5
	9
	5
	9
	6
	9
	5
	0
	7
	9
	5
	5
	9
	9
	9
	0
	5
	9
	10
	4
	6
	0
	7
	9
	5
	9
	0
	4
	3
	0
	9
	5
	9
	5
	5
	9
	0
	9
	9
	0
	4
	7
	9
	4
	4
	9
	4
	4
	1
	4
	4
	9
	4
	4
	3
	4
	9
	1
	4
	4
	9
	3
	4
	4
	9
	4
	9
	5
	7
	9
	5
	5
	0
	9
	7
	6
	9
	5
	5
	9
	5
	5
	9
	11
	5
	5
	9
	0
	5
	5
	9
	7
	1
	1
